decision_x1=[0,2];
decision_x2=[0,2];
decision_x3=[0,2];
decision_x4=[0,2];
decision_x5=[0,2];
decision_x6=[0,2];
decision_x7=[0,2];
decision_x8=[0,2];
decision_x9=[0,2];
decision_x10=[0,2];
decision_x11=[0,2];
decision_x12=[0,2];
random_y1=[0,2];
random_y2=[0,2];
random_y3=[0,2];
random_y4=[0,2];
random_y5=[0,2];
random_y6=[0,2];
random_y7=[0,2];
random_y8=[0,2];
random_y9=[0,2];
random_y10=[0,2];
random_y11=[0,2];
random_y12=[0,2];
constraint_x2_x1=[
0,0,0.98|
0,1,0.29|
0,2,8.6|
1,0,3.8|
1,1,2.2|
1,2,3.1|
2,0,4.5|
2,1,8.8|
2,2,6.8|
];
constraint_x3_x1=[
0,0,8.1|
0,1,2.3|
0,2,4.1|
1,0,7.4|
1,1,5.3|
1,2,5.9|
2,0,5.4|
2,1,8.5|
2,2,4.4|
];
constraint_x4_x2=[
0,0,9.2|
0,1,4|
0,2,7.1|
1,0,1.6|
1,1,4.6|
1,2,6.1|
2,0,1.2|
2,1,5.5|
2,2,2.7|
];
constraint_x4_x3=[
0,0,4.1|
0,1,4.5|
0,2,2.6|
1,0,5.8|
1,1,6.7|
1,2,2.4|
2,0,5.2|
2,1,8.1|
2,2,5.9|
];
constraint_x5_x1=[
0,0,0.11|
0,1,4.4|
0,2,4|
1,0,5.5|
1,1,2.6|
1,2,0.73|
2,0,9.2|
2,1,0.26|
2,2,7.4|
];
constraint_x5_x2=[
0,0,7.4|
0,1,4.6|
0,2,5|
1,0,4.3|
1,1,8.8|
1,2,6|
2,0,2.1|
2,1,6.9|
2,2,5.9|
];
constraint_x6_x4=[
0,0,2.2|
0,1,8.2|
0,2,4.6|
1,0,4.3|
1,1,7|
1,2,7.6|
2,0,7.6|
2,1,9.3|
2,2,9.9|
];
constraint_x6_x5=[
0,0,9.9|
0,1,2.1|
0,2,6.7|
1,0,5|
1,1,6.5|
1,2,6.1|
2,0,1.1|
2,1,4.6|
2,2,5|
];
constraint_x7_x2=[
0,0,9.1|
0,1,2.5|
0,2,6.4|
1,0,3.1|
1,1,1.9|
1,2,2.6|
2,0,7.3|
2,1,5.5|
2,2,3.5|
];
constraint_x7_x3=[
0,0,8.7|
0,1,0.23|
0,2,8.6|
1,0,3.7|
1,1,5.7|
1,2,8.7|
2,0,6.4|
2,1,9.1|
2,2,3.7|
];
constraint_x7_x4=[
0,0,9.2|
0,1,7.4|
0,2,8.1|
1,0,3.6|
1,1,2.4|
1,2,0.25|
2,0,2.6|
2,1,1.1|
2,2,7.9|
];
constraint_x7_x5=[
0,0,7.8|
0,1,7.9|
0,2,0.8|
1,0,4.8|
1,1,1|
1,2,4.4|
2,0,6.4|
2,1,8.1|
2,2,2.1|
];
constraint_x8_x2=[
0,0,7.9|
0,1,7.9|
0,2,5.3|
1,0,1.6|
1,1,4.5|
1,2,2.5|
2,0,7.1|
2,1,2.5|
2,2,0.75|
];
constraint_x8_x7=[
0,0,9.3|
0,1,0.36|
0,2,4.1|
1,0,1.9|
1,1,5.8|
1,2,6.5|
2,0,5.7|
2,1,6.9|
2,2,5|
];
constraint_x9_x2=[
0,0,8.2|
0,1,6|
0,2,3.3|
1,0,5.6|
1,1,9.9|
1,2,3.4|
2,0,0.27|
2,1,3.2|
2,2,3.4|
];
constraint_x9_x3=[
0,0,4.8|
0,1,6|
0,2,9.2|
1,0,2|
1,1,2.3|
1,2,2.5|
2,0,0.2|
2,1,3.2|
2,2,4.8|
];
constraint_x9_x5=[
0,0,6.4|
0,1,3.1|
0,2,1.9|
1,0,0.31|
1,1,2|
1,2,8.7|
2,0,0.11|
2,1,2.4|
2,2,3.3|
];
constraint_x9_x7=[
0,0,9.8|
0,1,10|
0,2,5.2|
1,0,9.8|
1,1,7.1|
1,2,4.4|
2,0,1.6|
2,1,0.99|
2,2,1.4|
];
constraint_x10_x3=[
0,0,8.7|
0,1,5.6|
0,2,4.7|
1,0,9.9|
1,1,5.3|
1,2,5.8|
2,0,6.6|
2,1,4.8|
2,2,5.4|
];
constraint_x10_x5=[
0,0,4|
0,1,2|
0,2,8|
1,0,0.83|
1,1,5.9|
1,2,4.3|
2,0,1.8|
2,1,6.2|
2,2,8.3|
];
constraint_x10_x6=[
0,0,2.2|
0,1,8.1|
0,2,2|
1,0,0.15|
1,1,5.1|
1,2,1.6|
2,0,5.7|
2,1,6.3|
2,2,9.6|
];
constraint_x10_x8=[
0,0,5.3|
0,1,3.1|
0,2,9.8|
1,0,8|
1,1,5|
1,2,4|
2,0,0.091|
2,1,7.2|
2,2,6.6|
];
constraint_x11_x1=[
0,0,6.1|
0,1,7.5|
0,2,0.78|
1,0,1.6|
1,1,2.3|
1,2,0.14|
2,0,2.1|
2,1,0.18|
2,2,2.6|
];
constraint_x11_x4=[
0,0,8.4|
0,1,1.3|
0,2,0.22|
1,0,4|
1,1,2.4|
1,2,3.7|
2,0,5.2|
2,1,3.9|
2,2,1.8|
];
constraint_x11_x6=[
0,0,6.2|
0,1,2.2|
0,2,8.3|
1,0,8.1|
1,1,7.1|
1,2,2.4|
2,0,4.2|
2,1,9.1|
2,2,8.4|
];
constraint_x11_x7=[
0,0,6.6|
0,1,0.17|
0,2,9.9|
1,0,2.3|
1,1,0.78|
1,2,7.6|
2,0,1|
2,1,2.8|
2,2,1.9|
];
constraint_x11_x10=[
0,0,7|
0,1,8.6|
0,2,6.5|
1,0,6.5|
1,1,8.7|
1,2,0.14|
2,0,5.6|
2,1,4.8|
2,2,9.7|
];
constraint_x12_x1=[
0,0,0.51|
0,1,1.3|
0,2,4.8|
1,0,8.3|
1,1,2.6|
1,2,4.8|
2,0,1.3|
2,1,2.6|
2,2,7.5|
];
constraint_x12_x4=[
0,0,5.4|
0,1,1.9|
0,2,5|
1,0,1.6|
1,1,7.5|
1,2,1.7|
2,0,9.6|
2,1,8.9|
2,2,6|
];
constraint_x12_x5=[
0,0,4.2|
0,1,9|
0,2,8.4|
1,0,1.7|
1,1,6.5|
1,2,3.6|
2,0,4.4|
2,1,4.9|
2,2,0.75|
];
constraint_x12_x7=[
0,0,7.5|
0,1,6.2|
0,2,6.8|
1,0,6.6|
1,1,6.4|
1,2,9|
2,0,9|
2,1,9.5|
2,2,0.21|
];
constraint_x12_x9=[
0,0,2.7|
0,1,5.9|
0,2,3.1|
1,0,4.4|
1,1,4.5|
1,2,2|
2,0,5.9|
2,1,3.5|
2,2,5.2|
];
constraint_x12_x11=[
0,0,6.9|
0,1,9.9|
0,2,2|
1,0,1.6|
1,1,9.2|
1,2,2.4|
2,0,3|
2,1,6.5|
2,2,0.74|
];
constraint_x1_y1=[
0,0,8.8|
0,1,3.6|
0,2,6.1|
1,0,8.9|
1,1,2.9|
1,2,7.3|
2,0,0.91|
2,1,4.7|
2,2,3.1|
];
constraint_x2_y2=[
0,0,5.2|
0,1,1.7|
0,2,7.8|
1,0,5.5|
1,1,6.5|
1,2,2.6|
2,0,3.9|
2,1,1.8|
2,2,7.2|
];
constraint_x3_y3=[
0,0,7|
0,1,2.8|
0,2,2.9|
1,0,3.9|
1,1,2.6|
1,2,2.1|
2,0,4|
2,1,1.9|
2,2,5.5|
];
constraint_x4_y4=[
0,0,8.9|
0,1,3.5|
0,2,4.2|
1,0,2.1|
1,1,8.3|
1,2,7.4|
2,0,0.54|
2,1,9.9|
2,2,1.8|
];
constraint_x5_y5=[
0,0,1.4|
0,1,8.8|
0,2,8.5|
1,0,9.1|
1,1,2.6|
1,2,0.15|
2,0,4.4|
2,1,0.45|
2,2,8.9|
];
constraint_x6_y6=[
0,0,1.8|
0,1,6.8|
0,2,3.7|
1,0,5.8|
1,1,6.7|
1,2,3.5|
2,0,8.1|
2,1,2.5|
2,2,1.3|
];
constraint_x7_y7=[
0,0,7.6|
0,1,7.3|
0,2,4.5|
1,0,2.5|
1,1,0.39|
1,2,5.9|
2,0,6.5|
2,1,4.2|
2,2,5|
];
constraint_x8_y8=[
0,0,0.14|
0,1,1.6|
0,2,0.45|
1,0,0.47|
1,1,8.9|
1,2,5.2|
2,0,2.8|
2,1,8.9|
2,2,5.4|
];
constraint_x9_y9=[
0,0,7.7|
0,1,7.7|
0,2,6.8|
1,0,6.9|
1,1,2.8|
1,2,0.85|
2,0,1.6|
2,1,6.6|
2,2,0.41|
];
constraint_x10_y10=[
0,0,7.9|
0,1,7.3|
0,2,5|
1,0,0.65|
1,1,2.8|
1,2,7.5|
2,0,8.2|
2,1,1.1|
2,2,5.7|
];
constraint_x11_y11=[
0,0,1.6|
0,1,2.8|
0,2,7.9|
1,0,0.41|
1,1,6.1|
1,2,6.2|
2,0,1.2|
2,1,2.1|
2,2,3.5|
];
constraint_x12_y12=[
0,0,5.9|
0,1,4.5|
0,2,9.5|
1,0,5.9|
1,1,9.8|
1,2,6.8|
2,0,0.2|
2,1,8.8|
2,2,4.5|
];
initial_distribution_y1=[0.83,0.093,0.076];
initial_distribution_y2=[0.54,0.44,0.015];
initial_distribution_y3=[0.36,0.46,0.18];
initial_distribution_y4=[0.18,0.36,0.46];
initial_distribution_y5=[0.22,0.54,0.24];
initial_distribution_y6=[0.42,0.47,0.1];
initial_distribution_y7=[0.38,0.26,0.36];
initial_distribution_y8=[0.27,0.28,0.44];
initial_distribution_y9=[0.76,0.18,0.064];
initial_distribution_y10=[0.59,0.27,0.14];
initial_distribution_y11=[0.27,0.24,0.49];
initial_distribution_y12=[0.37,0.25,0.37];
transition_y1=[
0.27,0.35,0.38|
0.15,0.65,0.2|
0.3,0.68,0.017|
];
transition_y2=[
0.058,0.5,0.44|
0.11,0.5,0.39|
0.48,0.09,0.43|
];
transition_y3=[
0.2,0.22,0.58|
0.37,0.33,0.3|
0.15,0.44,0.41|
];
transition_y4=[
0.28,0.48,0.24|
0.35,0.13,0.52|
0.54,0.43,0.023|
];
transition_y5=[
0.44,0.15,0.41|
0.45,0.25,0.3|
0.054,0.31,0.63|
];
transition_y6=[
0.36,0.34,0.3|
0.63,0.091,0.28|
0.2,0.43,0.38|
];
transition_y7=[
0.17,0.52,0.31|
0.53,0.26,0.21|
0.26,0.34,0.41|
];
transition_y8=[
0.4,0.57,0.033|
0.48,0.48,0.034|
0.52,0.19,0.28|
];
transition_y9=[
0.36,0.46,0.18|
0.53,0.051,0.42|
0.42,0.12,0.46|
];
transition_y10=[
0.54,0.034,0.43|
0.48,0.4,0.12|
0.18,0.17,0.65|
];
transition_y11=[
0.44,0.38,0.18|
0.38,0.45,0.17|
0.26,0.13,0.61|
];
transition_y12=[
0.17,0.39,0.44|
0.091,0.21,0.7|
0.35,0.34,0.31|
];
